\ENCODING=ISO-8859-1
\Problem name: ilog.cplex

Minimize
 obj1: 104145 x1 + 98596 x2 + 92522 x3 + 106646 x4 + 92224 x5 + 95479 x6
       + 98217 x7 + 106641 x8 + 95379 x9 + 100465 x10 + 105166 x11 + 101532 x12
       + 103466 x13 + 97600 x14 + 101422 x15 + 96002 x16 + 100280 x17
       + 109030 x18 + 94348 x19 + 94230 x20 + 104277 x21 + 96498 x22
       + 95369 x23 + 96474 x24 + 94571 x25 + 109209 x26 + 94950 x27
       + 104229 x28 + 90680 x29 + 103704 x30 + 99097 x31 + 100909 x32
       + 102779 x33 + 102963 x34 + 94784 x35 + 96954 x36 + 98169 x37
       + 109169 x38 + 98448 x39 + 105727 x40 + 99192 x41 + 97394 x42
       + 99046 x43 + 109766 x44 + 98019 x45 + 95920 x46 + 95187 x47
       + 105669 x48 + 104543 x49 + 103005 x50 + 99595 x51 + 92066 x52
       + 91264 x53 + 101019 x54 + 92817 x55 + 106705 x56 + 99310 x57
       + 91542 x58 + 106067 x59 + 100165 x60 + 93471 x61 + 93148 x62
       + 98047 x63 + 90680 x64 + 94297 x65 + 108524 x66 + 105358 x67
       + 99837 x68 + 104936 x69 + 107158 x70 + 101057 x71 + 96213 x72
       + 97017 x73 + 97595 x74 + 105048 x75 + 91589 x76 + 92331 x77
       + 106387 x78 + 91275 x79 + 99264 x80 + 90674 x81 + 105288 x82
       + 91375 x83 + 98217 x84 + 99216 x85 + 105306 x86 + 94781 x87 + 91725 x88
       + 99435 x89 + 93878 x90 + 91242 x91 + 104544 x92 + 103886 x93
       + 109759 x94 + 93278 x95 + 108877 x96 + 107006 x97 + 109128 x98
       + 93325 x99 + 106058 x100 + 98305 x101 + 96230 x102 + 109963 x103
       + 91481 x104 + 102807 x105 + 106013 x106 + 105915 x107 + 90227 x108
       + 109100 x109 + 106691 x110 + 100184 x111 + 98670 x112 + 99863 x113
       + 108161 x114 + 101634 x115 + 101224 x116 + 105168 x117 + 92245 x118
       + 107266 x119 + 104593 x120 + 100690 x121 + 99286 x122 + 106050 x123
       + 97125 x124 + 91489 x125 + 105455 x126 + 98346 x127 + 95236 x128
       + 104741 x129 + 105134 x130 + 102888 x131 + 99634 x132 + 107130 x133
       + 100879 x134 + 108467 x135 + 97538 x136 + 105610 x137 + 107249 x138
       + 93259 x139 + 106154 x140 + 103873 x141 + 94148 x142 + 101153 x143
       + 97384 x144 + 91073 x145 + 90388 x146 + 91502 x147 + 94079 x148
       + 94251 x149 + 98807 x150 + 100527 x151 + 107839 x152 + 100080 x153
       + 97851 x154 + 107869 x155 + 106147 x156 + 99755 x157 + 106872 x158
       + 102935 x159 + 90454 x160 + 95097 x161 + 99691 x162 + 92015 x163
       + 102357 x164 + 96224 x165 + 92001 x166 + 94759 x167 + 104541 x168
       + 100746 x169 + 99503 x170 + 91426 x171 + 107683 x172 + 108598 x173
       + 95848 x174 + 91576 x175 + 90919 x176 + 97827 x177 + 95765 x178
       + 103170 x179 + 103911 x180 + 97776 x181 + 106683 x182 + 92362 x183
       + 91786 x184 + 102648 x185 + 93287 x186 + 91116 x187 + 98186 x188
       + 100663 x189 + 91183 x190 + 92335 x191 + 96197 x192 + 91871 x193
       + 108200 x194 + 90319 x195 + 92120 x196 + 91089 x197 + 104861 x198
       + 98124 x199 + 102824 x200 + 103867 x201 + 99691 x202 + 95003 x203
       + 104713 x204 + 102608 x205 + 91232 x206 + 98599 x207 + 106910 x208
       + 108229 x209 + 105928 x210 + 102452 x211 + 98621 x212 + 108850 x213
       + 108337 x214 + 102876 x215 + 106515 x216 + 104887 x217 + 100465 x218
       + 93553 x219 + 96766 x220 + 107335 x221 + 94329 x222 + 105103 x223
       + 93150 x224 + 109816 x225 + 101099 x226 + 98593 x227 + 95465 x228
       + 104073 x229 + 97577 x230 + 99524 x231 + 96901 x232 + 109981 x233
       + 90451 x234 + 98075 x235 + 109025 x236 + 93215 x237 + 104087 x238
       + 91259 x239 + 108683 x240 + 106383 x241 + 108622 x242 + 103124 x243
       + 102382 x244 + 92741 x245 + 101645 x246 + 90227 x247 + 100634 x248
       + 95526 x249 + 157628 x250 + 182034 x251 + 191830 x252 + 183807 x253
       + 219216 x254 + 206986 x255 + 182405 x256 + 185179 x257 + 211180 x258
       + 191878 x259 + 215865 x260 + 200257 x261 + 193227 x262 + 209675 x263
       + 191497 x264 + 218704 x265 + 190173 x266 + 193310 x267 + 205489 x268
       + 196597 x269 + 219079 x270 + 198844 x271 + 188147 x272 + 215423 x273
       + 214598 x274 + 194885 x275 + 204596 x276 + 205856 x277 + 216841 x278
       + 182364 x279 + 187719 x280 + 192480 x281 + 206148 x282 + 211321 x283
       + 214331 x284 + 180027 x285 + 218282 x286 + 197618 x287 + 201553 x288
       + 199854 x289 + 186409 x290 + 192578 x291 + 210076 x292 + 187330 x293
       + 212819 x294 + 202285 x295 + 194485 x296 + 186416 x297 + 193711 x298
       + 190855 x299 + 223761 x300
Subject To
 c1:   - x21 - x38  = 0
 c2:   - x71 - x88  = 0
 c3:   - x121 - x138  = 0
 c4:   - x171 - x188  = 0
 c5:   - x221 - x238  = 0
 c6:   - x4 - x8 - x31 + x34  = 0
 c7:   - x54 - x58 - x81 + x84  = 0
 c8:   - x104 - x108 - x131 + x134  = 0
 c9:   - x154 - x158 - x181 + x184  = -1
 c10:  - x204 - x208 - x231 + x234  = 0
 c11:  - x9 - x10 + x13 + x25 + x28 + x31 + x35 - x36  = 0
 c12:  - x59 - x60 + x63 + x75 + x78 + x81 + x85 - x86  = 0
 c13:  - x109 - x110 + x113 + x125 + x128 + x131 + x135 - x136  = -1
 c14:  - x159 - x160 + x163 + x175 + x178 + x181 + x185 - x186  = 0
 c15:  - x209 - x210 + x213 + x225 + x228 + x231 + x235 - x236  = 0
 c16:  - x5 + x19 + x32 - x43 - x47  = 0
 c17:  - x55 + x69 + x82 - x93 - x97  = -1
 c18:  - x105 + x119 + x132 - x143 - x147  = 0
 c19:  - x155 + x169 + x182 - x193 - x197  = 0
 c20:  - x205 + x219 + x232 - x243 - x247  = 0
 c21:  x5 - x6 - x14 - x22 - x23 + x30 - x33 + x36 + x45  = 0
 c22:  x55 - x56 - x64 - x72 - x73 + x80 - x83 + x86 + x95  = 0
 c23:  x105 - x106 - x114 - x122 - x123 + x130 - x133 + x136 + x145  = 1
 c24:  x155 - x156 - x164 - x172 - x173 + x180 - x183 + x186 + x195  = 0
 c25:  x205 - x206 - x214 - x222 - x223 + x230 - x233 + x236 + x245  = 0
 c26:  x1 + x17 - x24 + x27 - x35 - x39 + x44  = 0
 c27:  x51 + x67 - x74 + x77 - x85 - x89 + x94  = 0
 c28:  x101 + x117 - x124 + x127 - x135 - x139 + x144  = 0
 c29:  x151 + x167 - x174 + x177 - x185 - x189 + x194  = 0
 c30:  x201 + x217 - x224 + x227 - x235 - x239 + x244  = 0
 c31:  - x19 + x23 - x28 + x39 + x42 + x50  = 1
 c32:  - x69 + x73 - x78 + x89 + x92 + x100  = 0
 c33:  - x119 + x123 - x128 + x139 + x142 + x150  = 0
 c34:  - x169 + x173 - x178 + x189 + x192 + x200  = 0
 c35:  - x219 + x223 - x228 + x239 + x242 + x250  = 0
 c36:  x3 + x6 - x11 + x21 - x34 - x40 + x43 - x44 + x49 - x50  = 0
 c37:  x53 + x56 - x61 + x71 - x84 - x90 + x93 - x94 + x99 - x100  = 1
 c38:  x103 + x106 - x111 + x121 - x134 - x140 + x143 - x144 + x149 - x150  = 0
 c39:  x153 + x156 - x161 + x171 - x184 - x190 + x193 - x194 + x199 - x200  = 0
 c40:  x203 + x206 - x211 + x221 - x234 - x240 + x243 - x244 + x249 - x250  = 0
 c41:  - x2 + x46  = 0
 c42:  - x52 + x96  = 0
 c43:  - x102 + x146  = 0
 c44:  - x152 + x196  = 0
 c45:  - x202 + x246  = 0
 c46:  - x1 + x12 - x13 + x15 + x20 - x29 - x30 - x32 + x40  = 0
 c47:  - x51 + x62 - x63 + x65 + x70 - x79 - x80 - x82 + x90  = 0
 c48:  - x101 + x112 - x113 + x115 + x120 - x129 - x130 - x132 + x140  = 0
 c49:  - x151 + x162 - x163 + x165 + x170 - x179 - x180 - x182 + x190  = 0
 c50:  - x201 + x212 - x213 + x215 + x220 - x229 - x230 - x232 + x240  = -1
 c51:  x4 + x7 + x11 - x15 + x18  = 0
 c52:  x54 + x57 + x61 - x65 + x68  = 0
 c53:  x104 + x107 + x111 - x115 + x118  = 0
 c54:  x154 + x157 + x161 - x165 + x168  = 1
 c55:  x204 + x207 + x211 - x215 + x218  = 0
 c56:  x2 + x8 + x24 - x42  = 0
 c57:  x52 + x58 + x74 - x92  = 0
 c58:  x102 + x108 + x124 - x142  = 0
 c59:  x152 + x158 + x174 - x192  = 0
 c60:  x202 + x208 + x224 - x242  = 0
 c61:  x9 - x12 - x26 + x33 + x38 - x41 + x48 - x49  = 0
 c62:  x59 - x62 - x76 + x83 + x88 - x91 + x98 - x99  = 0
 c63:  x109 - x112 - x126 + x133 + x138 - x141 + x148 - x149  = 0
 c64:  x159 - x162 - x176 + x183 + x188 - x191 + x198 - x199  = 0
 c65:  x209 - x212 - x226 + x233 + x238 - x241 + x248 - x249  = 0
 c66:  x14 + x16 - x18 - x20 + x26 - x27 - x37 + x47  = -1
 c67:  x64 + x66 - x68 - x70 + x76 - x77 - x87 + x97  = 0
 c68:  x114 + x116 - x118 - x120 + x126 - x127 - x137 + x147  = 0
 c69:  x164 + x166 - x168 - x170 + x176 - x177 - x187 + x197  = 0
 c70:  x214 + x216 - x218 - x220 + x226 - x227 - x237 + x247  = 0
 c71:  - x3 - x7 + x10 - x16 - x17 + x22 - x25 + x29 + x37 + x41 - x45 - x46
       - x48  = 0
 c72:  - x53 - x57 + x60 - x66 - x67 + x72 - x75 + x79 + x87 + x91 - x95 - x96
       - x98  = 0
 c73:  - x103 - x107 + x110 - x116 - x117 + x122 - x125 + x129 + x137 + x141
       - x145 - x146 - x148  = 0
 c74:  - x153 - x157 + x160 - x166 - x167 + x172 - x175 + x179 + x187 + x191
       - x195 - x196 - x198  = 0
 c75:  - x203 - x207 + x210 - x216 - x217 + x222 - x225 + x229 + x237 + x241
       - x245 - x246 - x248  = 1
 c76:  4 x1 + 4 x51 + 4 x101 + 4 x151 + 4 x201 - 2 x251 <= 0
 c77:  4 x2 + 4 x52 + 4 x102 + 4 x152 + 4 x202 - 2 x252 <= 0
 c78:  4 x3 + 4 x53 + 4 x103 + 4 x153 + 4 x203 - 2 x253 <= 0
 c79:  4 x4 + 4 x54 + 4 x104 + 4 x154 + 4 x204 - 2 x254 <= 0
 c80:  4 x5 + 4 x55 + 4 x105 + 4 x155 + 4 x205 - 2 x255 <= 0
 c81:  4 x6 + 4 x56 + 4 x106 + 4 x156 + 4 x206 - 2 x256 <= 0
 c82:  4 x7 + 4 x57 + 4 x107 + 4 x157 + 4 x207 - 2 x257 <= 0
 c83:  4 x8 + 4 x58 + 4 x108 + 4 x158 + 4 x208 - 2 x258 <= 0
 c84:  4 x9 + 4 x59 + 4 x109 + 4 x159 + 4 x209 - 2 x259 <= 0
 c85:  4 x10 + 4 x60 + 4 x110 + 4 x160 + 4 x210 - 2 x260 <= 0
 c86:  4 x11 + 4 x61 + 4 x111 + 4 x161 + 4 x211 - 2 x261 <= 0
 c87:  4 x12 + 4 x62 + 4 x112 + 4 x162 + 4 x212 - 2 x262 <= 0
 c88:  4 x13 + 4 x63 + 4 x113 + 4 x163 + 4 x213 - 2 x263 <= 0
 c89:  4 x14 + 4 x64 + 4 x114 + 4 x164 + 4 x214 - 2 x264 <= 0
 c90:  4 x15 + 4 x65 + 4 x115 + 4 x165 + 4 x215 - 2 x265 <= 0
 c91:  4 x16 + 4 x66 + 4 x116 + 4 x166 + 4 x216 - 2 x266 <= 0
 c92:  4 x17 + 4 x67 + 4 x117 + 4 x167 + 4 x217 - 2 x267 <= 0
 c93:  4 x18 + 4 x68 + 4 x118 + 4 x168 + 4 x218 - 2 x268 <= 0
 c94:  4 x19 + 4 x69 + 4 x119 + 4 x169 + 4 x219 - 2 x269 <= 0
 c95:  4 x20 + 4 x70 + 4 x120 + 4 x170 + 4 x220 - 2 x270 <= 0
 c96:  4 x21 + 4 x71 + 4 x121 + 4 x171 + 4 x221 - 2 x271 <= 0
 c97:  4 x22 + 4 x72 + 4 x122 + 4 x172 + 4 x222 - 2 x272 <= 0
 c98:  4 x23 + 4 x73 + 4 x123 + 4 x173 + 4 x223 - 2 x273 <= 0
 c99:  4 x24 + 4 x74 + 4 x124 + 4 x174 + 4 x224 - 2 x274 <= 0
 c100: 4 x25 + 4 x75 + 4 x125 + 4 x175 + 4 x225 - 2 x275 <= 0
 c101: 4 x26 + 4 x76 + 4 x126 + 4 x176 + 4 x226 - 2 x276 <= 0
 c102: 4 x27 + 4 x77 + 4 x127 + 4 x177 + 4 x227 - 2 x277 <= 0
 c103: 4 x28 + 4 x78 + 4 x128 + 4 x178 + 4 x228 - 2 x278 <= 0
 c104: 4 x29 + 4 x79 + 4 x129 + 4 x179 + 4 x229 - 2 x279 <= 0
 c105: 4 x30 + 4 x80 + 4 x130 + 4 x180 + 4 x230 - 2 x280 <= 0
 c106: 4 x31 + 4 x81 + 4 x131 + 4 x181 + 4 x231 - 2 x281 <= 0
 c107: 4 x32 + 4 x82 + 4 x132 + 4 x182 + 4 x232 - 2 x282 <= 0
 c108: 4 x33 + 4 x83 + 4 x133 + 4 x183 + 4 x233 - 2 x283 <= 0
 c109: 4 x34 + 4 x84 + 4 x134 + 4 x184 + 4 x234 - 2 x284 <= 0
 c110: 4 x35 + 4 x85 + 4 x135 + 4 x185 + 4 x235 - 2 x285 <= 0
 c111: 4 x36 + 4 x86 + 4 x136 + 4 x186 + 4 x236 - 2 x286 <= 0
 c112: 4 x37 + 4 x87 + 4 x137 + 4 x187 + 4 x237 - 2 x287 <= 0
 c113: 4 x38 + 4 x88 + 4 x138 + 4 x188 + 4 x238 - 2 x288 <= 0
 c114: 4 x39 + 4 x89 + 4 x139 + 4 x189 + 4 x239 - 2 x289 <= 0
 c115: 4 x40 + 4 x90 + 4 x140 + 4 x190 + 4 x240 - 2 x290 <= 0
 c116: 4 x41 + 4 x91 + 4 x141 + 4 x191 + 4 x241 - 2 x291 <= 0
 c117: 4 x42 + 4 x92 + 4 x142 + 4 x192 + 4 x242 - 2 x292 <= 0
 c118: 4 x43 + 4 x93 + 4 x143 + 4 x193 + 4 x243 - 2 x293 <= 0
 c119: 4 x44 + 4 x94 + 4 x144 + 4 x194 + 4 x244 - 2 x294 <= 0
 c120: 4 x45 + 4 x95 + 4 x145 + 4 x195 + 4 x245 - 2 x295 <= 0
 c121: 4 x46 + 4 x96 + 4 x146 + 4 x196 + 4 x246 - 2 x296 <= 0
 c122: 4 x47 + 4 x97 + 4 x147 + 4 x197 + 4 x247 - 2 x297 <= 0
 c123: 4 x48 + 4 x98 + 4 x148 + 4 x198 + 4 x248 - 2 x298 <= 0
 c124: 4 x49 + 4 x99 + 4 x149 + 4 x199 + 4 x249 - 2 x299 <= 0
 c125: 4 x50 + 4 x100 + 4 x150 + 4 x200 + 4 x250 - 2 x300 <= 0
Bounds
 0 <= x1 <= 1
 0 <= x2 <= 1
 0 <= x3 <= 1
 0 <= x4 <= 1
 0 <= x5 <= 1
 0 <= x6 <= 1
 0 <= x7 <= 1
 0 <= x8 <= 1
 0 <= x9 <= 1
 0 <= x10 <= 1
 0 <= x11 <= 1
 0 <= x12 <= 1
 0 <= x13 <= 1
 0 <= x14 <= 1
 0 <= x15 <= 1
 0 <= x16 <= 1
 0 <= x17 <= 1
 0 <= x18 <= 1
 0 <= x19 <= 1
 0 <= x20 <= 1
 0 <= x21 <= 1
 0 <= x22 <= 1
 0 <= x23 <= 1
 0 <= x24 <= 1
 0 <= x25 <= 1
 0 <= x26 <= 1
 0 <= x27 <= 1
 0 <= x28 <= 1
 0 <= x29 <= 1
 0 <= x30 <= 1
 0 <= x31 <= 1
 0 <= x32 <= 1
 0 <= x33 <= 1
 0 <= x34 <= 1
 0 <= x35 <= 1
 0 <= x36 <= 1
 0 <= x37 <= 1
 0 <= x38 <= 1
 0 <= x39 <= 1
 0 <= x40 <= 1
 0 <= x41 <= 1
 0 <= x42 <= 1
 0 <= x43 <= 1
 0 <= x44 <= 1
 0 <= x45 <= 1
 0 <= x46 <= 1
 0 <= x47 <= 1
 0 <= x48 <= 1
 0 <= x49 <= 1
 0 <= x50 <= 1
 0 <= x51 <= 1
 0 <= x52 <= 1
 0 <= x53 <= 1
 0 <= x54 <= 1
 0 <= x55 <= 1
 0 <= x56 <= 1
 0 <= x57 <= 1
 0 <= x58 <= 1
 0 <= x59 <= 1
 0 <= x60 <= 1
 0 <= x61 <= 1
 0 <= x62 <= 1
 0 <= x63 <= 1
 0 <= x64 <= 1
 0 <= x65 <= 1
 0 <= x66 <= 1
 0 <= x67 <= 1
 0 <= x68 <= 1
 0 <= x69 <= 1
 0 <= x70 <= 1
 0 <= x71 <= 1
 0 <= x72 <= 1
 0 <= x73 <= 1
 0 <= x74 <= 1
 0 <= x75 <= 1
 0 <= x76 <= 1
 0 <= x77 <= 1
 0 <= x78 <= 1
 0 <= x79 <= 1
 0 <= x80 <= 1
 0 <= x81 <= 1
 0 <= x82 <= 1
 0 <= x83 <= 1
 0 <= x84 <= 1
 0 <= x85 <= 1
 0 <= x86 <= 1
 0 <= x87 <= 1
 0 <= x88 <= 1
 0 <= x89 <= 1
 0 <= x90 <= 1
 0 <= x91 <= 1
 0 <= x92 <= 1
 0 <= x93 <= 1
 0 <= x94 <= 1
 0 <= x95 <= 1
 0 <= x96 <= 1
 0 <= x97 <= 1
 0 <= x98 <= 1
 0 <= x99 <= 1
 0 <= x100 <= 1
 0 <= x101 <= 1
 0 <= x102 <= 1
 0 <= x103 <= 1
 0 <= x104 <= 1
 0 <= x105 <= 1
 0 <= x106 <= 1
 0 <= x107 <= 1
 0 <= x108 <= 1
 0 <= x109 <= 1
 0 <= x110 <= 1
 0 <= x111 <= 1
 0 <= x112 <= 1
 0 <= x113 <= 1
 0 <= x114 <= 1
 0 <= x115 <= 1
 0 <= x116 <= 1
 0 <= x117 <= 1
 0 <= x118 <= 1
 0 <= x119 <= 1
 0 <= x120 <= 1
 0 <= x121 <= 1
 0 <= x122 <= 1
 0 <= x123 <= 1
 0 <= x124 <= 1
 0 <= x125 <= 1
 0 <= x126 <= 1
 0 <= x127 <= 1
 0 <= x128 <= 1
 0 <= x129 <= 1
 0 <= x130 <= 1
 0 <= x131 <= 1
 0 <= x132 <= 1
 0 <= x133 <= 1
 0 <= x134 <= 1
 0 <= x135 <= 1
 0 <= x136 <= 1
 0 <= x137 <= 1
 0 <= x138 <= 1
 0 <= x139 <= 1
 0 <= x140 <= 1
 0 <= x141 <= 1
 0 <= x142 <= 1
 0 <= x143 <= 1
 0 <= x144 <= 1
 0 <= x145 <= 1
 0 <= x146 <= 1
 0 <= x147 <= 1
 0 <= x148 <= 1
 0 <= x149 <= 1
 0 <= x150 <= 1
 0 <= x151 <= 1
 0 <= x152 <= 1
 0 <= x153 <= 1
 0 <= x154 <= 1
 0 <= x155 <= 1
 0 <= x156 <= 1
 0 <= x157 <= 1
 0 <= x158 <= 1
 0 <= x159 <= 1
 0 <= x160 <= 1
 0 <= x161 <= 1
 0 <= x162 <= 1
 0 <= x163 <= 1
 0 <= x164 <= 1
 0 <= x165 <= 1
 0 <= x166 <= 1
 0 <= x167 <= 1
 0 <= x168 <= 1
 0 <= x169 <= 1
 0 <= x170 <= 1
 0 <= x171 <= 1
 0 <= x172 <= 1
 0 <= x173 <= 1
 0 <= x174 <= 1
 0 <= x175 <= 1
 0 <= x176 <= 1
 0 <= x177 <= 1
 0 <= x178 <= 1
 0 <= x179 <= 1
 0 <= x180 <= 1
 0 <= x181 <= 1
 0 <= x182 <= 1
 0 <= x183 <= 1
 0 <= x184 <= 1
 0 <= x185 <= 1
 0 <= x186 <= 1
 0 <= x187 <= 1
 0 <= x188 <= 1
 0 <= x189 <= 1
 0 <= x190 <= 1
 0 <= x191 <= 1
 0 <= x192 <= 1
 0 <= x193 <= 1
 0 <= x194 <= 1
 0 <= x195 <= 1
 0 <= x196 <= 1
 0 <= x197 <= 1
 0 <= x198 <= 1
 0 <= x199 <= 1
 0 <= x200 <= 1
 0 <= x201 <= 1
 0 <= x202 <= 1
 0 <= x203 <= 1
 0 <= x204 <= 1
 0 <= x205 <= 1
 0 <= x206 <= 1
 0 <= x207 <= 1
 0 <= x208 <= 1
 0 <= x209 <= 1
 0 <= x210 <= 1
 0 <= x211 <= 1
 0 <= x212 <= 1
 0 <= x213 <= 1
 0 <= x214 <= 1
 0 <= x215 <= 1
 0 <= x216 <= 1
 0 <= x217 <= 1
 0 <= x218 <= 1
 0 <= x219 <= 1
 0 <= x220 <= 1
 0 <= x221 <= 1
 0 <= x222 <= 1
 0 <= x223 <= 1
 0 <= x224 <= 1
 0 <= x225 <= 1
 0 <= x226 <= 1
 0 <= x227 <= 1
 0 <= x228 <= 1
 0 <= x229 <= 1
 0 <= x230 <= 1
 0 <= x231 <= 1
 0 <= x232 <= 1
 0 <= x233 <= 1
 0 <= x234 <= 1
 0 <= x235 <= 1
 0 <= x236 <= 1
 0 <= x237 <= 1
 0 <= x238 <= 1
 0 <= x239 <= 1
 0 <= x240 <= 1
 0 <= x241 <= 1
 0 <= x242 <= 1
 0 <= x243 <= 1
 0 <= x244 <= 1
 0 <= x245 <= 1
 0 <= x246 <= 1
 0 <= x247 <= 1
 0 <= x248 <= 1
 0 <= x249 <= 1
 0 <= x250 <= 1
 0 <= x251 <= 1
 0 <= x252 <= 1
 0 <= x253 <= 1
 0 <= x254 <= 1
 0 <= x255 <= 1
 0 <= x256 <= 1
 0 <= x257 <= 1
 0 <= x258 <= 1
 0 <= x259 <= 1
 0 <= x260 <= 1
 0 <= x261 <= 1
 0 <= x262 <= 1
 0 <= x263 <= 1
 0 <= x264 <= 1
 0 <= x265 <= 1
 0 <= x266 <= 1
 0 <= x267 <= 1
 0 <= x268 <= 1
 0 <= x269 <= 1
 0 <= x270 <= 1
 0 <= x271 <= 1
 0 <= x272 <= 1
 0 <= x273 <= 1
 0 <= x274 <= 1
 0 <= x275 <= 1
 0 <= x276 <= 1
 0 <= x277 <= 1
 0 <= x278 <= 1
 0 <= x279 <= 1
 0 <= x280 <= 1
 0 <= x281 <= 1
 0 <= x282 <= 1
 0 <= x283 <= 1
 0 <= x284 <= 1
 0 <= x285 <= 1
 0 <= x286 <= 1
 0 <= x287 <= 1
 0 <= x288 <= 1
 0 <= x289 <= 1
 0 <= x290 <= 1
 0 <= x291 <= 1
 0 <= x292 <= 1
 0 <= x293 <= 1
 0 <= x294 <= 1
 0 <= x295 <= 1
 0 <= x296 <= 1
 0 <= x297 <= 1
 0 <= x298 <= 1
 0 <= x299 <= 1
 0 <= x300 <= 1
Binaries
 x251  x252  x253  x254  x255  x256  x257  x258  x259  x260  x261  x262  x263 
 x264  x265  x266  x267  x268  x269  x270  x271  x272  x273  x274  x275  x276 
 x277  x278  x279  x280  x281  x282  x283  x284  x285  x286  x287  x288  x289 
 x290  x291  x292  x293  x294  x295  x296  x297  x298  x299  x300 
End
